c File: instances/14_0.55_3.col
c
c Description: Random graph of size 14 vertices and P(0.5499999999999999) of edges between any two vertices.
p col 14 91
e 1 2
e 1 4
e 1 5
e 1 8
e 1 10
e 1 12
e 1 14
e 2 4
e 2 7
e 2 11
e 3 4
e 3 6
e 3 7
e 3 9
e 3 10
e 3 12
e 3 13
e 4 6
e 4 7
e 5 7
e 5 8
e 5 9
e 5 11
e 5 12
e 5 14
e 6 8
e 6 10
e 6 11
e 6 12
e 6 14
e 7 9
e 7 11
e 7 12
e 7 13
e 8 10
e 8 11
e 8 13
e 8 14
e 9 10
e 9 12
e 9 13
e 9 14
e 10 11
e 10 12
e 10 13
e 11 12
e 12 13
e 12 14